NAME : TSP_INST.96772.tour
COMMENT : Length = 96772
COMMENT : Found by LKH [Keld Helsgaun] Sat Oct 18 14:37:00 2025
TYPE : TOUR
DIMENSION : 136
TOUR_SECTION
1
6
5
18
30
29
31
38
41
42
37
50
54
66
61
62
53
51
40
39
52
64
63
65
72
74
73
85
98
97
86
84
75
76
71
83
87
100
95
96
99
106
108
107
119
132
131
136
130
120
118
109
110
129
135
121
117
105
122
128
111
112
116
123
127
134
126
125
133
124
115
103
114
113
104
101
92
91
102
90
81
69
80
79
82
89
93
94
88
77
78
70
67
59
60
49
43
44
48
55
58
57
68
56
47
35
46
45
36
33
24
23
34
22
13
4
12
11
3
10
14
21
25
26
9
15
32
20
16
2
8
27
28
19
17
7
-1
EOF
